p tw 110 117
1 2
2 23
3 17
4 5
5 6
6 7
7 8
8 9
9 10
10 11
11 12
12 13
14 15
15 16
16 17
17 18
18 19
19 20
20 21
21 22
21 24
22 24
22 81
23 34
24 25
25 26
26 27
27 28
28 29
28 54
29 30
30 31
31 32
32 33
33 35
34 45
35 36
36 37
37 38
37 41
38 39
39 40
40 75
41 42
42 43
43 44
44 46
45 56
46 47
47 48
48 49
49 50
50 51
51 52
52 53
53 75
54 55
55 57
56 67
57 58
58 59
59 60
60 61
61 62
62 63
63 64
63 66
64 65
65 66
66 68
67 78
67 14
68 69
69 70
70 71
71 72
72 73
73 74
74 75
75 76
76 77
76 10
77 79
78 89
79 80
80 10
81 82
82 83
83 84
84 85
85 86
85 88
86 87
87 10
88 90
89 100
90 91
91 92
92 93
93 94
94 95
95 96
96 97
97 98
98 99
99 101
100 3
101 102
102 103
103 104
104 105
105 106
106 107
107 108
108 109
109 110
110 4
